language ESSENCE' 1.0

letting fixed be 
[
    [3,0,0,0,5,2,0,0,0],
    [2,5,0,3,0,0,0,1,0],
    [0,0,4,6,0,7,5,2,3],
    [0,9,3,2,0,0,8,0,5],
    [5,7,0,0,0,0,0,3,0],
    [4,0,8,0,3,5,0,6,0],
    [0,0,5,4,0,8,3,0,0],
    [0,3,0,5,0,6,0,8,4],
    [8,4,0,0,2,3,0,5,6]
]